360

O      14.881200000000000     13.860400000000000      2.093040000000000
H      15.013999999999999     12.883599999999999      2.260830000000000
H      14.125400000000003     13.988600000000000      1.450930000000000
O       4.246200000000000      9.568230000000000      8.760830000000000
H       3.300800000000000      9.267379999999999      8.886139999999999
H       4.374360000000000     10.456799999999999      9.201250000000000
O       6.685750000000000      2.103710000000000      2.993330000000000
H       6.209570000000000      2.768110000000000      3.569370000000000
H       6.252190000000000      1.207750000000000      3.089690000000000
O       3.333620000000000      7.303500000000000     12.101699999999999
H       3.784060000000000      7.971850000000000     11.509800000000002
H       3.777790000000000      6.413580000000000     11.997999999999999
O       0.686836000000000     11.111200000000000      8.258260000000000
H       1.546160000000000     10.885999999999999      7.799079999999999
H       0.270244000000000     10.274900000000001      8.614660000000001
O      11.549799999999999      8.607530000000001      0.063309000000000
H      12.169800000000000      8.846240000000000     14.784100000000000
H      11.303000000000001      7.640810000000000     15.463900000000001
O      11.506800000000000      3.170150000000000     14.267700000000000
H      10.791100000000000      3.429750000000000     13.619300000000001
H      11.552300000000001      2.173280000000000     14.332500000000000
O       0.629711000000000      5.966200000000000      0.289212000000000
H       1.573110000000000      5.995170000000000      0.619592000000000
H       0.004112820000000      6.126760000000000      1.052660000000000
O      12.174700000000000      3.142050000000000      6.150320000000000
H      12.109000000000000      3.206600000000000      7.146070000000000
H      12.726000000000001      2.345060000000000      5.903620000000000
O      13.568700000000000      8.671889999999999     13.288399999999999
H      14.484300000000001      8.393359999999999     13.578500000000000
H      13.110300000000001      7.900980000000000     12.846200000000000
O      11.758900000000001      0.483231000000000     14.328500000000000
H      12.450100000000001     15.236700000000003     14.435300000000000
H      10.852499999999999      0.064528100000000     14.271800000000001
O      13.532999999999999      0.432488000000000      5.475880000000000
H      12.924200000000001      0.513609000000000      4.686680000000000
H      13.765300000000000     14.938700000000001      5.620180000000000
O      15.196199999999999     12.896599999999999     10.190500000000000
H       0.325531000000000     12.296300000000000      9.658820000000000
H      15.450600000000000     12.849500000000001     11.156499999999999
O       5.381430000000000     11.069200000000000     14.758800000000001
H       6.231900000000000     11.128800000000000     14.236200000000002
H       5.331590000000000     10.180300000000001     15.214200000000000
O       5.138110000000001      2.825880000000000     13.661400000000000
H       5.185880000000000      2.214770000000000     14.451499999999999
H       4.188180000000000      2.906890000000000     13.359600000000000
O      14.369000000000000     13.436800000000000      6.208040000000000
H      13.587899999999999     12.855200000000000      6.435090000000000
H      15.163000000000000     12.864000000000001      6.004090000000000
O       2.545820000000000      2.541110000000000      3.978700000000000
H       3.041790000000000      2.907960000000000      4.765750000000000
H       3.002120000000000      1.712740000000000      3.653770000000000
O       5.693370000000000      9.635330000000000      4.551290000000000
H       6.587240000000000      9.972790000000000      4.846460000000000
H       5.620470000000000      8.659700000000001      4.758240000000000
O      14.598699999999999      2.395470000000000      3.498490000000000
H      14.395099999999999      2.251240000000000      2.530110000000000
H      14.233100000000000      1.633500000000000      4.033030000000000
O       2.879590000000000     10.538500000000001      6.706850000000001
H       3.622620000000000      9.939510000000000      7.005270000000000
H       2.275440000000001     10.037100000000001      6.087560000000000
O       6.448530000000000      1.676550000000000     11.373000000000001
H       5.875040000000000      2.213210000000000     11.992000000000001
H       6.700160000000000      2.235570000000000     10.582900000000000
O       7.339720000000000      8.028090000000001     11.395500000000000
H       7.391110000000001      7.585320000000000     12.290699999999999
H       6.566030000000000      8.661470000000000     11.380900000000000
O      13.322900000000001      0.497233000000000      9.695399999999999
H      14.115000000000000      0.577875000000000      9.090420000000000
H      13.311400000000001      1.266800000000000     10.333900000000000
O       9.607930000000000      9.348500000000000      8.287050000000001
H       9.021369999999999      9.723940000000001      7.569420000000000
H      10.054300000000001     10.096600000000000      8.778050000000000
O      12.071899999999999      0.415555000000000      2.817790000000000
H      11.190300000000001      0.859051000000000      2.656190000000000
H      12.735500000000000      0.737015000000000      2.142320000000000
O       7.562590000000000     14.742300000000000      5.659960000000000
H       7.765750000000000      0.155321000000000      6.087040000000000
H       7.092650000000000     14.153600000000001      6.317650000000000
O       3.229960000000000     12.967800000000000     14.802400000000000
H       3.990630000000000     12.341799999999999     14.973900000000000
H       2.628980000000000     12.578799999999999     14.104200000000001
O       4.821920000000000      8.850120000000000      0.781167000000000
H       5.601760000000000      8.803459999999999      1.405390000000000
H       4.674930000000001      7.953350000000000      0.363796000000000
O       0.912981000000000     12.604300000000000     12.736700000000001
H       0.776832000000000     13.540900000000001     13.059300000000000
H       0.868609000000000     11.974800000000000     13.512499999999999
O       7.652550000000000      3.516110000000000     14.282999999999999
H       6.823590000000000      3.126850000000000     13.881399999999999
H       7.438530000000000      3.902440000000000     15.180199999999999
O      11.343000000000000      7.091040000000000      7.408570000000000
H      10.743700000000000      7.823290000000000      7.732000000000000
H      11.639200000000001      7.290840000000000      6.474580000000000
O       8.496910000000000      1.545490000000000      6.819250000000000
H       9.316369999999999      1.178510000000000      7.259480000000000
H       8.756470000000000      2.276990000000000      6.188740000000000
O       7.385430000000000      4.515220000000000      1.479560000000000
H       7.728500000000000      5.050120000000001      2.251690000000000
H       7.020510000000000      3.645700000000000      1.812390000000000
O       4.055210000000000      0.268369000000000      2.965410000000000
H       3.262440000000000     15.319500000000000      2.520860000000000
H       4.648570000000000     15.018900000000000      3.330160000000000
O       9.740069999999999      9.782150000000000      1.839240000000000
H      10.279199999999999      9.237349999999999      1.196940000000000
H      10.265800000000000      9.925580000000000      2.677740000000000
O      15.376799999999999      2.415170000000000      6.440370000000000
H       0.814939000000000      2.030380000000001      6.615350000000000
H      14.740500000000003      1.678540000000000      6.211360000000000
O      10.947300000000000      6.332400000000000      3.006500000000000
H      11.485300000000001      5.543760000000000      2.708850000000000
H      11.385199999999999      6.754110000000000      3.800480000000000
O       4.766670000000000     11.951800000000000     10.091500000000000
H       4.425470000000000     12.613500000000002      9.423859999999999
H       4.857520000000000     12.394800000000000     10.983400000000000
O      14.537100000000001      7.906350000000000      6.620960000000000
H      14.208600000000001      6.973200000000000      6.475170000000000
H      14.424500000000000      8.434699999999999      5.779440000000000
O       6.621780000000000     12.812400000000000      7.639250000000000
H       5.653270000000000     13.048700000000000      7.560980000000000
H       6.842990000000000     12.625600000000000      8.596420000000000
O       1.663120000000000      8.863260000000000      4.496910000000000
H       2.256210000000000      8.521820000000000      3.767760000000000
H       0.720261000000000      8.907050000000000      4.166610000000000
O      11.953500000000000      7.905160000000000      4.992550000000000
H      11.308199999999999      8.668749999999999      4.970040000000000
H      12.761300000000000      8.135339999999999      4.449910000000000
O      13.808999999999999     11.284300000000000     15.138600000000000
H      14.100400000000000     11.039199999999999      0.595137000000000
H      14.405200000000001     10.837300000000001     14.471700000000000
O       3.767630000000000      2.519740000000001      6.650920000000000
H       3.314060000000000      3.171570000000000      7.258700000000001
H       3.407780000000000      1.601880000000000      6.818340000000000
O      12.153600000000001     13.511799999999999      9.466830000000000
H      12.917299999999999     12.970900000000000      9.114430000000000
H      12.473900000000000     14.430999999999999      9.696000000000000
O       7.152970000000000     15.104500000000000     13.020300000000001
H       6.485190000000000     14.413100000000000     12.744600000000000
H       6.929470000000000      0.508126000000000     12.584400000000000
O       0.256898000000000      7.418660000000000     11.252700000000001
H       0.807455000000000      7.643520000000001     12.056699999999999
H      15.133699999999999      8.192720000000000     11.026600000000002
O      14.351400000000000      8.737439999999999      3.577620000000000
H      14.238400000000000      7.758740000000000      3.406270000000000
H      13.837300000000001      9.256880000000001      2.895000000000000
O      12.330800000000000     10.896800000000001     12.555300000000001
H      12.741700000000000      9.986739999999999     12.609299999999999
H      12.522000000000000     11.399400000000000     13.398500000000002
O       8.243370000000002      5.973060000000000      3.612840000000000
H       9.141010000000000      6.282710000000000      3.299230000000000
H       7.698530000000000      6.762490000000000      3.895630000000001
O       3.191250000000000      7.609340000000000      2.709710000000000
H       3.305880000000000      6.637250000000000      2.504980000000000
H       3.702370000000000      8.152749999999999      2.043780000000000
O       8.760050000000000     11.452299999999999     12.376899999999999
H       8.681020000000000     10.584700000000000     12.867800000000001
H       9.319800000000001     12.087000000000000     12.909599999999999
O       1.377900000000000      8.002219999999999      8.436710000000000
H       1.120370000000000      7.710360000000000      9.357849999999999
H       0.556978000000000      8.085760000000001      7.871820000000000
O       9.495300000000000      1.251410000000000      2.287700000000000
H       8.647440000000000      1.549810000000000      2.725990000000000
H       9.399300000000000      1.320160000000000      1.294700000000000
O      10.053599999999999     12.812700000000000      7.759880000000001
H       9.275169999999999     13.436700000000000      7.828540000000000
H      10.636300000000002     12.916900000000000      8.565870000000000
O       4.625380000000000     13.630500000000000     12.543900000000001
H       4.176440000000000     14.314200000000000     11.968500000000001
H       4.180250000000001     13.603999999999999     13.438900000000000
O       9.141560000000000      3.515540000000000      5.078100000000000
H       8.764230000000000      4.157600000000000      4.410730000000000
H      10.140300000000000      3.561130000000000      5.056730000000000
O       6.117910000000000     14.200699999999999      3.433160000000000
H       6.667810000000000     13.750000000000000      2.729930000000000
H       6.698540000000000     14.429500000000001      4.214490000000000
O       2.071010000000000     14.316000000000001      1.813690000000000
H       1.075040000000000     14.253900000000000      1.748960000000000
H       2.487100000000000     13.765100000000000      1.090260000000000
O      13.170400000000001      4.633050000000000      4.114330000000000
H      13.723699999999999      3.844930000000000      3.844690000000000
H      12.692299999999999      4.428160000000000      4.968450000000000
O       0.762612000000000      4.594450000000000      4.270620000000000
H      15.425800000000001      4.005330000000000      4.200290000000000
H       1.588370000000000      4.030540000000000      4.282020000000000
O       9.402189999999999     14.349800000000000     14.248200000000001
H       8.534890000000001     14.618000000000000     13.828799999999999
H       9.296840000000000     13.459600000000000     14.691500000000000
O      12.983000000000001      4.962080000000000      0.179157000000000
H      13.918300000000000      4.626020000000000      0.068314100000000
H      12.343700000000000      4.307990000000000     15.243000000000000
O       3.108530000000000      4.212010000000000      1.685600000000000
H       3.962279999999999      3.890980000000000      2.095540000000000
H       2.348900000000000      3.651690000000000      2.015760000000000
O      12.486000000000001     11.781499999999999      6.812670000000000
H      12.718600000000000     10.911799999999999      7.247920000000000
H      11.556400000000000     12.045100000000000      7.070410000000000
O      13.058500000000000      7.980340000000001      9.601390000000000
H      13.131100000000000      7.336400000000000      8.839770000000000
H      12.154500000000001      7.899510000000000     10.021200000000002
O       1.195450000000000      7.782840000000000     13.993000000000002
H       2.081260000000000      7.462310000000000     13.657400000000001
H       0.844390000000000      7.139910000000000     14.673700000000000
O       6.379640000000000      2.965330000000000      8.809550000000000
H       6.509470000000000      2.171100000000000      8.215970000000000
H       6.302110000000000      3.790500000000000      8.250000000000000
O       0.299346000000000     15.109299999999999      8.474950000000000
H      15.145700000000000     14.781800000000000      7.763459999999999
H       0.184270000000000     14.554900000000002      9.299180000000000
O       0.708065000000000     15.091100000000001     14.460900000000001
H       1.512140000000000     15.225300000000001     15.040100000000001
H       0.415203000000000      0.503415000000000     14.087999999999999
O      14.877700000000001      6.161310000000000      2.597910000000000
H      14.136300000000000      5.559450000000000      2.894850000000000
H       0.259115000000000      5.892550000000000      3.051770000000000
O       3.797260000000000      0.387987000000000     10.998699999999999
H       4.646580000000000      0.912042000000000     10.935400000000000
H       3.032960000000000      0.953129000000000     10.688100000000000
O       5.588590000000000      1.430230000000000      0.577090000000000
H       6.169230000000000      1.484080000000000      1.389470000000000
H       4.720920000000000      0.994179000000000      0.815858000000000
O       5.921410000000000      3.619930000000000      5.037440000000000
H       6.546510000000000      4.313910000000000      5.394710000000000
H       5.188940000000000      3.458880000000000      5.698920000000000
O       5.922870000000000      7.068010000000000      5.206560000000000
H       6.465740000000000      6.500750000000000      5.825840000000000
H       4.950810000000000      6.940480000000000      5.403640000000000
O      12.021300000000000      4.529140000000000      8.774730000000000
H      12.707200000000000      4.576120000000000      9.500870000000001
H      11.889400000000000      5.439030000000000      8.381399999999999
O       7.568220000000000      5.106760000000000      6.815990000000000
H       8.330840000000000      4.626160000000000      6.383040000000000
H       7.867980000000000      5.488200000000000      7.690430000000000
O      10.073600000000001      6.164790000000000     15.404400000000001
H      10.024300000000000      5.680000000000001      0.809541000000000
H       9.200480000000001      6.618030000000000     15.225000000000000
O       2.797650000000000     10.577700000000000      1.695850000000000
H       3.218710000000000     11.029900000000000      2.482140000000000
H       3.445370000000000      9.927220000000000      1.299170000000000
O       7.045670000000000      8.844220000000000      2.223780000000000
H       6.805660000000000      9.670790000000000      2.732880000000001
H       8.034870000000000      8.816940000000001      2.079720000000000
O       9.638840000000000     12.402500000000000      0.979854000000000
H       9.646670000000000     11.417000000000000      1.149210000000000
H      10.303800000000001     12.848900000000000      1.578640000000000
O       1.178740000000000     10.685600000000001     14.558800000000000
H       1.619240000000000     10.847200000000001     15.441900000000000
H       1.454980000000000      9.791150000000000     14.207200000000000
O      10.310700000000001      8.292800000000000     11.213400000000002
H       9.329680000000000      8.136419999999999     11.328200000000001
H      10.466600000000000      9.239699999999999     10.932100000000000
O      10.726100000000001      0.553170000000000      7.839910000000001
H      10.866199999999999      0.211591000000000      8.769259999999999
H      11.569800000000001      0.444723000000000      7.314200000000000
O      13.978300000000003      2.206800000000000      0.936555000000000
H      14.115700000000000      1.537400000000000      0.206460000000000
H      13.271599999999999      2.858940000000000      0.662200000000000
O      11.593900000000000      6.559090000000000     13.234900000000000
H      11.064000000000000      6.311950000000000     14.046099999999999
H      11.017600000000000      7.081790000000001     12.606700000000000
O       1.818390000000000     13.455200000000000      4.744000000000000
H       1.208800000000000     13.608900000000000      3.966310000000000
H       2.496160000000000     12.760199999999999      4.504050000000000
O       9.832300000000000     12.913399999999999      4.993680000000000
H      10.003800000000002     12.614400000000000      5.932410000000000
H       9.273590000000000     13.742700000000001      5.004800000000000
O      10.339100000000000     10.083200000000000      4.724380000000000
H       9.540540000000002      9.900850000000000      5.297990000000000
H      10.480700000000001     11.070600000000001      4.654270000000000
O       2.981880000000000      6.975740000000000      6.417660000000000
H       3.023760000000000      7.679210000000000      5.708170000000000
H       2.516280000000000      7.342120000000000      7.223250000000000
O      13.772700000000000      5.166100000000000     11.951499999999999
H      14.172900000000000      6.045160000000000     11.692500000000001
H      12.884900000000000      5.319030000000000     12.385600000000000
O       0.894930000000000      5.260900000000000      9.581310000000000
H       0.311239000000000      5.313940000000000      8.771060000000000
H       0.489613000000000      5.799570000000001     10.319900000000001
O       0.378187000000000     11.367200000000000      2.485520000000000
H       1.349360000000000     11.128900000000000      2.490090000000000
H      15.316400000000000     10.613799999999999      2.874690000000000
O       2.901700000000000      4.644860000000000      7.861659999999999
H       2.979050000000000      5.463520000000000      7.292610000000000
H       2.226960000000000      4.802640000000000      8.582649999999999
O       7.899720000000000     12.629600000000000     10.046700000000001
H       8.079550000000001     12.086499999999999     10.866899999999999
H       8.303570000000001     13.538200000000000     10.153499999999999
O       9.432090000000001      3.772920000000000      9.680580000000001
H      10.325400000000000      4.211330000000000      9.581780000000000
H       9.274800000000001      3.158840000000000      8.907170000000001
O       5.078970000000000      9.760830000000000     11.789700000000000
H       4.705310000000000     10.267500000000000     12.566700000000001
H       5.298530000000000     10.397900000000000     11.050800000000001
O       5.228770000000000      5.379000000000000     12.992200000000000
H       5.067110000000000      4.450090000000000     13.325400000000000
H       5.113510000000000      5.401680000000000     11.999100000000000
O       4.273740000000000     12.053699999999999      3.695390000000000
H       4.702360000000000     11.299700000000001      4.193070000000000
H       4.960480000000000     12.751400000000000      3.491230000000000
O      10.850400000000000     10.945800000000000     10.388400000000001
H       9.964990000000000     11.394700000000000     10.508599999999999
H      11.376899999999999     11.014799999999999     11.235700000000000
O       2.512830000000000      3.443040000000000     12.552899999999999
H       1.797580000000000      3.944860000000000     13.039300000000001
H       2.102890000000000      2.916330000000000     11.808199999999999
O       3.778410000000000      6.467500000000000     15.302800000000000
H       3.911100000000000      5.712110000000000      0.476376000000000
H       4.106350000000000      6.197350000000000     14.397500000000001
O      13.019900000000000      2.531600000000000     11.621499999999999
H      12.101400000000000      2.591090000000000     12.012400000000000
H      13.458000000000000      3.429650000000000     11.661500000000000
O      12.900300000000000     10.167299999999999      2.031050000000000
H      12.792899999999999     11.151500000000000      2.171850000000000
H      12.343900000000000      9.879379999999999      1.251650000000000
O      11.586000000000000     13.300400000000000      2.467380000000000
H      11.202900000000000     12.953500000000000      3.323480000000000
H      11.695000000000000     14.292500000000000      2.528770000000000
O      15.112200000000000      5.125210000000000      6.898280000000000
H      14.954599999999999      4.142480000000000      6.801220000000000
H       0.288533000000000      5.430290000000001      6.197130000000000
O      13.654500000000001     13.958000000000000     14.976400000000000
H      13.645099999999999     12.977200000000000     14.781700000000001
H      14.570499999999999     14.322400000000000     14.808800000000000
O       7.937350000000001      6.315460000000000     13.568500000000000
H       6.952550000000000      6.297950000000000     13.741300000000001
H       8.311489999999999      5.394640000000000     13.678599999999999
O       8.154330000000000      9.129310000000000     14.082900000000000
H       8.143860000000000      8.192220000000001     13.734000000000000
H       8.008010000000001      9.118330000000000     15.072100000000001
O      14.552899999999999     10.096500000000001     10.584700000000000
H      14.151700000000000     10.967100000000000     10.869300000000001
H      13.833500000000001      9.496750000000000     10.234299999999999
O       3.699560000000000     13.374499999999999      7.818060000000000
H       3.129990000000000     12.828500000000002      7.203710000000000
H       3.592720000000000     14.344099999999999      7.597900000000000
O      14.759600000000001      1.804070000000000     13.705100000000000
H      15.285299999999999      2.646100000000000     13.584199999999999
H      14.069000000000003      1.735980000000000     12.985099999999999
O       2.455260000000000     15.407500000000001      6.820610000000000
H       1.660750000000000     15.401500000000000      7.427830000000000
H       2.286580000000000     14.799400000000000      6.044920000000000
O       9.616540000000001      3.684130000000000     12.451000000000001
H       8.810800000000000      3.679530000000000     13.043300000000000
H       9.333170000000001      3.548370000000000     11.501700000000000
O       1.773880000000000      1.765910000000000     10.007199999999999
H       1.644500000000000      2.721790000000000      9.743499999999999
H       1.207640000000000      1.180490000000000      9.427009999999999
O       6.553920000000001      8.493119999999999      7.750300000000000
H       5.622550000000000      8.666090000000001      8.070650000000001
H       6.935600000000000      7.710500000000000      8.242050000000001
O       7.803800000000000     10.351900000000001      6.287190000000000
H       7.479310000000000     11.286000000000000      6.436180000000000
H       7.347020000000000      9.734290000000000      6.927420000000000
O       7.323590000000000      5.898860000000000      9.448980000000001
H       7.328390000000000      6.781840000000001      9.918369999999999
H       7.798050000000001      5.220540000000000     10.010000000000000
O       0.457408000000000      4.529000000000000     13.452299999999999
H      15.159900000000000      4.908120000000000     12.932700000000002
H       0.564031000000000      5.036830000000000     14.307200000000000
O       4.819430000000000      5.080140000000000     10.247400000000001
H       5.314240000000000      5.561390000000000      9.523809999999999
H       4.138090000000000      4.473110000000000      9.838390000000000
